1258
791
3508
3264
4176
1690
1170
3892
4093
1218
376
843
381
3892
4062
138
4076
3005
3689
2614
3375
2201
649
3379
422
3406
1090
1098
3353
3303
2537
3462
258
3006
1631
1342
3898
4081
2476
1749
2678
2559
3114
1236
1610
2704
1500
2530
1997
2769
1477
3516
1541
3651
4083
4084
3315
452
3856
656
1192
1295
546
3146
2666
3078
2377
2804
987
3597
837
2514
503
214
888
1982
2248
2556
3154
699
1691
2818
887
3081
528
1315
4170
4132
3109
1532
1701
3847
2499
1076
2581
2601
2221
3917
2458
1323
